c description: Random 2-CNF over 15 variables and 95 clauses
c generator: CNFgen (0.9.0)
c copyright: (C) 2012-2020 Massimo Lauria <massimo.lauria@uniroma1.it>
c url: https://massimolauria.net/cnfgen
c
p cnf 15 95
-3 4 0
6 13 0
5 14 0
-5 7 0
12 -14 0
8 12 0
-2 -11 0
11 12 0
1 13 0
-5 -12 0
-4 -12 0
-6 -8 0
5 9 0
2 -5 0
6 15 0
8 -15 0
5 -13 0
2 -15 0
10 15 0
8 -14 0
-11 15 0
-4 -5 0
8 -11 0
1 -11 0
13 -14 0
1 6 0
4 7 0
9 10 0
11 -13 0
3 -15 0
6 -8 0
8 13 0
-5 10 0
-10 -15 0
6 -12 0
2 -14 0
-3 -7 0
4 -6 0
6 -13 0
-5 15 0
-6 8 0
4 9 0
6 -7 0
-4 13 0
-5 9 0
-1 -13 0
-9 12 0
-10 12 0
7 -14 0
-8 9 0
-13 15 0
-5 -11 0
3 15 0
-12 14 0
-5 -7 0
-1 11 0
-2 7 0
-4 12 0
2 -11 0
-3 -12 0
-2 13 0
-2 11 0
13 14 0
9 12 0
8 10 0
-12 -13 0
-3 7 0
6 -15 0
-4 -8 0
4 -11 0
6 -14 0
-12 -14 0
-11 -14 0
-2 12 0
-8 -13 0
-4 -7 0
-8 15 0
-3 13 0
1 -4 0
11 15 0
1 -15 0
4 5 0
10 11 0
10 -11 0
-9 -11 0
-4 -11 0
7 -10 0
-11 -13 0
5 15 0
7 11 0
-3 -5 0
-1 -11 0
-1 -5 0
-7 -11 0
1 -14 0